190	32	4	170	
10	10	10	10

0	0	0	0	0	0	1	1
1	1	0	1	1	10	1	2
2	0	1	3	3	5	1	3
3	0	3	3	7	9	1	4
4	0	3	2	2	5	1	5
5	7	0	5	4	7	1	6
6	0	8	4	4	3	2	30	7
7	5	0	4	7	1	1	8
8	4	3	0	4	7	1	9
9	5	4	0	3	8	1	10
10	0	1	5	5	5	1	11
11	0	7	7	5	10	1	12
12	6	7	0	2	5	1	13
13	3	3	0	3	8	1	14
14	0	5	5	3	8	1	15
15	2	5	0	7	8	2	26	16
16	5	2	0	4	3	1	17
17	6	0	4	1	8	1	18
18	1	0	5	5	3	1	19
19	1	5	0	7	6	1	20
20	4	0	6	4	9	1	21
21	3	4	2	0	8	2	29	22
22	0	6	3	8	10	1	23
23	6	3	0	3	3	1	24
24	0	4	2	2	4	1	25
25	0	4	7	4	6	1	27
26	6	2	0	2	8	1	27
27	4	3	7	0	6	1	28
28	4	2	0	5	5	1	31
29	3	0	1	5	2	1	31
30	4	7	0	2	10	1	31
31	0	0	0	0	0	0
